CMD:
./solvers/bin/cadical --plain --no-reduce -t 1600 ./data/cnfs//oski3b3i/oski3b3i.88.cnf

c --- [ banner ] -------------------------------------------------------------
c 
c CaDiCaL SAT Solver
c Copyright (c) 2016-2024
c A. Biere, M. Fleury, N. Froleyks, K. Fazekas, F. Pollitt, T. Faller
c JKU Linz, University of Freiburg, TU Wien
c 
c Version 2.1.3 5296d3d2a9bf48c154ab2acb5e44625776d821bf
c g++ (Gentoo 12.3.1_p20230526 p2) 12.3.1 20230526 -Wall -Wextra -O3 -DNDEBUG
c Sat Aug 9 07:26:21 PDT 2025 Linux cedar2.int.cedar.computecanada.ca 5.14.0-362.24.2.el9_3.x86_64 x86_64
c 
c --- [ limit ] --------------------------------------------------------------
c 
c setting time limit to 1600 seconds real time (due to '-t 1600')
c 
c --- [ parsing input ] ------------------------------------------------------
c 
c reading DIMACS file from './data/cnfs//oski3b3i/oski3b3i.88.cnf'
c opening file to read './data/cnfs//oski3b3i/oski3b3i.88.cnf'
c found 'p cnf 3496281 9553045' header
c parsed 9553045 clauses in 1.99 seconds process time
c 
c --- [ options ] ------------------------------------------------------------
c 
c   --compact=false                (different from default 'true')
c   --decompose=false              (different from default 'true')
c   --deduplicate=false            (different from default 'true')
c   --elim=false                   (different from default 'true')
c   --probe=false                  (different from default 'true')
c   --reduce=false                 (different from default 'true')
c   --subsume=false                (different from default 'true')
c   --ternary=false                (different from default 'true')
c   --transred=false               (different from default 'true')
c   --vivify=false                 (different from default 'true')
c 
c --- [ solving ] ------------------------------------------------------------
c 
c time measured in process time since initialization
c 
c  seconds    reductions  redundant   irredundant
c          MB     restarts       trail         variables
c            level   conflicts       glue            remaining
c 
c *  1.99 1442  0 0   0    0    0  0% 0 8583788 2081056 60%
c l  2.31 1459  0 0   0    0    0  0% 0 8583788 2081056 60%
c 1  2.31 1459  0 0   0    0    0  0% 0 8583788 2081056 60%
c 
c --- [ result ] -------------------------------------------------------------
c 
s SATISFIABLE
v -1 -2 -3 -4 -5 -6 -7 -8 -9 -10 -11 -12 -13 -14 -15 -16 -17 -18 -19 -20 -21
v -22 -23 -24 -25 -26 -27 -28 -29 -30 -31 -32 -33 -34 -35 -36 -37 -38 -39 -40
v -41 -42 -43 -44 -45 -46 -47 -48 -49 -50 -51 -52 -53 -54 -55 -56 -57 -58 -59
v -60 -61 -62 -63 -64 -65 -66 -67 -68 -69 -70 -71 -72 -73 -74 -75 -76 -77 -78
v -79 -80 -81 -82 -83 -84 -85 -86 -87 -88 -89 -90 -91 -92 -93 -94 -95 -96 -97
v -98 -99 -100 -101 -102 -103 -104 -105 -106 -107 -108 -109 -110 -111 -112
v -113 -114 -115 -116 -117 -118 -119 -120 -121 -122 -123 -124 -125 -126 -127
v -128 -129 -130 -131 -132 -133 -134 -135 -136 -137 -138 -139 -140 -141 -142
v -143 -144 -145 -146 -147 -148 -149 -150 -151 -152 -153 -154 -155 -156 -157
v -158 -159 -160 -161 -162 -163 -164 -165 -166 -167 -168 -169 -170 -171 -172
v -173 -174 -175 -176 -177 -178 -179 -180 -181 -182 -183 -184 -185 -186 -187
v -188 -189 -190 -191 -192 -193 -194 -195 -196 -197 -198 -199 -200 -201 -202
v -203 -204 -205 -206 -207 -208 -209 -210 -211 -212 -213 -214 -215 -216 -217
v -218 -219 -220 -221 -222 -223 -224 -225 -226 -227 -228 -229 -230 -231 -232
v -233 -234 -235 -236 -237 -238 -239 -240 -241 -242 -243 -244 -245 -246 -247
v -248 -249 -250 -251 -252 -253 -254 -255 -256 -257 -258 -259 -260 -261 -262
v -263 -264 -265 -266 -267 -268 -269 -270 -271 -272 -273 -274 -275 -276 -277
v -278 -279 -280 -281 -282 -283 -284 -285 -286 -287 -288 -289 -290 -291 -292
v -293 -294 -295 -296 -297 -298 -299 -300 -301 -302 -303 -304 -305 -306 -307
v -308 -309 -310 -311 -312 -313 -314 -315 -316 -317 -318 -319 -320 -321 -322
v -323 -324 -325 -326 -327 -328 -329 -330 -331 -332 -333 -334 -335 -336 -337
v -338 -339 -340 -341 -342 -343 -344 -345 -346 -347 -348 -349 -350 -351 -352
v -353 -354 -355 -356 -357 -358 -359 -360 -361 -362 -363 -364 -365 -366 -367
v -368 -369 -370 -371 -372 -373 -374 -375 -376 -377 -378 -379 -380 -381 -382
v -383 -384 -385 -386 -387 -388 -389 -390 -391 -392 -393 -394 -395 -396 -397
v -398 -399 -400 -401 -402 -403 -404 -405 -406 -407 -408 -409 -410 -411 -412
v -413 -414 -415 -416 -417 -418 -419 -420 -421 -422 -423 -424 -425 -426 -427
v -428 -429 -430 -431 -432 -433 -434 -435 -436 -437 -438 -439 -440 -441 -442
v -443 -444 -445 -446 -447 -448 -449 -450 -451 -452 -453 -454 -455 -456 -457
v -458 -459 -460 -461 -462 -463 -464 -465 -466 -467 -468 -469 -470 -471 -472
v -473 -474 -475 -476 -477 -478 -479 -480 -481 -482 -483 -484 -485 -486 -487
v -488 -489 -490 -491 -492 -493 -494 -495 -496 -497 -498 -499 -500 -501 -502
v -503 -504 -505 -506 -507 -508 -509 -510 -511 -512 -513 -514 -515 -516 -517
v -518 -519 -520 -521 -522 -523 -524 -525 -526 -527 -528 -529 -530 -531 -532
v -533 -534 -535 -536 -537 -538 -539 -540 -541 -542 -543 -544 -545 -546 -547
v -548 -549 -550 -551 -552 -553 -554 -555 -556 -557 -558 -559 -560 -561 -562
v -563 -564 -565 -566 -567 -568 -569 -570 -571 -572 -573 -574 -575 -576 -577
v -578 -579 -580 -581 -582 -583 -584 -585 -586 -587 -588 -589 -590 -591 -592
v -593 -594 -595 -596 -597 -598 -599 -600 -601 -602 -603 -604 -605 -606 -607
v -608 -609 -610 -611 -612 -613 -614 -615 -616 -617 -618 -619 -620 -621 -622
v -623 -624 -625 -626 -627 -628 -629 -630 -631 -632 -633 -634 -635 -636 -637
v -638 -639 -640 -641 -642 -643 -644 -645 -646 -647 -648 -649 -650 -651 -652
v -653 -654 -655 -656 -657 -658 -659 -660 -661 -662 -663 -664 -665 -666 -667
v -668 -669 -670 -671 -672 -673 -674 -675 -676 -677 -678 -679 -680 -681 -682
v -683 -684 -685 -686 -687 -688 -689 -690 -691 -692 -693 -694 -695 -696 -697
v -698 -699 -700 -701 -702 -703 -704 -705 -706 -707 -708 -709 -710 -711 -712
v -713 -714 -715 -716 -717 -718 -719 -720 -721 -722 -723 -724 -725 -726 -727
... skipped 403754 lines ...
v -3495766 -3495767 3495768 -3495769 -3495770 3495771 -3495772 -3495773
v 3495774 -3495775 -3495776 3495777 -3495778 -3495779 3495780 -3495781
v -3495782 3495783 -3495784 -3495785 3495786 -3495787 -3495788 3495789
v -3495790 -3495791 3495792 -3495793 -3495794 3495795 -3495796 -3495797
v 3495798 -3495799 -3495800 3495801 -3495802 -3495803 3495804 -3495805
v -3495806 3495807 -3495808 -3495809 3495810 -3495811 -3495812 3495813
v -3495814 -3495815 3495816 -3495817 -3495818 3495819 -3495820 -3495821
v 3495822 -3495823 -3495824 3495825 3495826 -3495827 -3495828 -3495829
v -3495830 -3495831 3495832 -3495833 -3495834 3495835 -3495836 -3495837
v 3495838 3495839 -3495840 -3495841 3495842 3495843 -3495844 3495845 -3495846
v -3495847 3495848 3495849 -3495850 -3495851 -3495852 -3495853 -3495854
v -3495855 3495856 3495857 3495858 -3495859 -3495860 3495861 -3495862 -3495863
v -3495864 -3495865 3495866 3495867 -3495868 -3495869 -3495870 -3495871
v 3495872 -3495873 -3495874 -3495875 -3495876 3495877 3495878 -3495879
v -3495880 3495881 -3495882 -3495883 -3495884 3495885 3495886 -3495887
v -3495888 -3495889 -3495890 -3495891 -3495892 3495893 3495894 3495895
v -3495896 -3495897 3495898 -3495899 -3495900 -3495901 -3495902 3495903
v 3495904 -3495905 -3495906 -3495907 -3495908 3495909 -3495910 -3495911
v -3495912 -3495913 3495914 3495915 -3495916 -3495917 3495918 -3495919
v -3495920 -3495921 3495922 3495923 -3495924 -3495925 -3495926 -3495927
v -3495928 -3495929 3495930 3495931 3495932 -3495933 -3495934 3495935 -3495936
v -3495937 -3495938 -3495939 3495940 3495941 -3495942 -3495943 -3495944
v -3495945 3495946 -3495947 -3495948 -3495949 -3495950 3495951 3495952
v -3495953 -3495954 3495955 -3495956 -3495957 -3495958 3495959 3495960
v -3495961 -3495962 -3495963 -3495964 -3495965 -3495966 3495967 3495968
v 3495969 -3495970 -3495971 3495972 -3495973 -3495974 -3495975 -3495976
v 3495977 3495978 -3495979 -3495980 -3495981 -3495982 3495983 -3495984
v -3495985 -3495986 -3495987 3495988 3495989 -3495990 -3495991 3495992
v -3495993 -3495994 -3495995 3495996 3495997 -3495998 -3495999 -3496000
v -3496001 -3496002 -3496003 3496004 3496005 3496006 -3496007 -3496008 3496009
v -3496010 -3496011 -3496012 -3496013 3496014 3496015 -3496016 -3496017
v -3496018 -3496019 3496020 -3496021 -3496022 -3496023 -3496024 3496025
v 3496026 -3496027 -3496028 3496029 -3496030 -3496031 -3496032 3496033 3496034
v -3496035 -3496036 -3496037 -3496038 -3496039 -3496040 3496041 3496042
v 3496043 -3496044 -3496045 3496046 -3496047 -3496048 -3496049 -3496050
v 3496051 3496052 -3496053 -3496054 -3496055 -3496056 3496057 -3496058
v -3496059 -3496060 -3496061 3496062 3496063 -3496064 -3496065 3496066
v -3496067 -3496068 -3496069 3496070 3496071 -3496072 -3496073 -3496074
v -3496075 -3496076 -3496077 3496078 3496079 3496080 -3496081 -3496082 3496083
v -3496084 -3496085 -3496086 -3496087 3496088 3496089 -3496090 -3496091
v -3496092 -3496093 3496094 -3496095 -3496096 -3496097 -3496098 3496099
v 3496100 -3496101 -3496102 3496103 -3496104 -3496105 -3496106 3496107 3496108
v -3496109 -3496110 -3496111 -3496112 -3496113 -3496114 3496115 3496116
v 3496117 -3496118 -3496119 3496120 -3496121 -3496122 -3496123 -3496124
v 3496125 3496126 -3496127 -3496128 -3496129 -3496130 3496131 -3496132
v -3496133 -3496134 -3496135 3496136 3496137 -3496138 -3496139 3496140
v -3496141 -3496142 3496143 3496144 -3496145 -3496146 -3496147 -3496148
v -3496149 -3496150 3496151 3496152 -3496153 -3496154 -3496155 -3496156
v -3496157 -3496158 3496159 3496160 -3496161 -3496162 -3496163 -3496164
v 3496165 3496166 -3496167 -3496168 -3496169 -3496170 3496171 3496172 -3496173
v -3496174 -3496175 -3496176 -3496177 3496178 3496179 -3496180 -3496181
v -3496182 -3496183 -3496184 3496185 3496186 -3496187 -3496188 -3496189
v -3496190 -3496191 3496192 3496193 -3496194 -3496195 -3496196 -3496197
v -3496198 3496199 3496200 -3496201 -3496202 -3496203 -3496204 -3496205
v 3496206 3496207 -3496208 -3496209 -3496210 -3496211 -3496212 3496213 3496214
v -3496215 -3496216 -3496217 -3496218 -3496219 3496220 3496221 -3496222
v -3496223 -3496224 -3496225 -3496226 3496227 3496228 -3496229 -3496230
v 3496231 -3496232 3496233 3496234 -3496235 -3496236 -3496237 -3496238 3496239
v 3496240 3496241 3496242 3496243 3496244 3496245 -3496246 3496247 3496248
v -3496249 -3496250 -3496251 -3496252 -3496253 -3496254 3496255 3496256
v -3496257 -3496258 3496259 3496260 -3496261 -3496262 -3496263 -3496264
v -3496265 3496266 -3496267 -3496268 -3496269 -3496270 3496271 -3496272
v -3496273 -3496274 3496275 -3496276 -3496277 -3496278 -3496279 3496280
v -3496281 0
c 
c --- [ run-time profiling ] -------------------------------------------------
c 
c process time taken by individual solving procedures
c (percentage relative to process time for solving)
c 
c         1.99  635.12% parse
c         0.31   99.96% search
c         0.31   99.96% lucky
c         0.00    0.00% simplify
c   =================================
c         0.31   12.71% solve
c 
c last line shows process time for solving
c (percentage relative to total process time)
c 
c --- [ statistics ] ---------------------------------------------------------
c 
c fixed:                   1415225        40.48 %  of all variables
c lucky:                         1       100.00 %  of tried
c minimized:                     0         0.00 %  learned literals
c shrunken:                      0         0.00 %  learned literals
c minishrunken:                  0         0.00 %  learned literals
c propagations:            1415225         4.51 M  per second
c 
c seconds are measured in process time for solving
c 
c --- [ resources ] ----------------------------------------------------------
c 
c total process time since initialization:         2.47    seconds
c total real time since initialization:            2.51    seconds
c maximum resident set size of process:         1458.59    MB
c 
c --- [ shutting down ] ------------------------------------------------------
c 
c exit 10
